NAME : mtspf.pid8547.gtsp.294879133.tour
COMMENT : Length = 294879133
COMMENT : Found by LKH [Keld Helsgaun] Tue Feb  4 20:43:24 2025
TYPE : TOUR
DIMENSION : 145
TOUR_SECTION
1
16
49
46
47
48
56
57
54
55
9
139
140
141
138
107
108
109
106
21
5
11
17
129
126
127
128
10
39
40
41
38
24
20
137
134
135
136
7
13
18
66
67
68
69
6
26
27
28
29
103
104
105
102
144
145
142
143
25
76
77
74
75
31
32
33
30
3
90
91
92
93
123
124
125
122
34
35
36
37
22
99
100
101
98
19
88
89
86
87
8
113
110
111
112
60
61
58
59
83
84
85
82
14
42
43
44
45
119
120
121
118
2
94
95
96
97
115
116
117
114
4
50
51
52
53
81
78
79
80
132
133
130
131
23
64
65
62
63
15
12
70
71
72
73
-1
EOF
